Optimal - objective value 6.00000000
     17 x_0_17                      1                       0
     23 x_1_3                       1                       0
     40 x_2_0                       1                       0
     73 x_3_13                      1                       0
     84 x_4_4                       1                       0
    103 x_5_3                       1                       2
    133 x_6_13                      1                       0
    157 x_7_17                      1                       0
    165 x_8_5                       1                       0
    197 x_9_17                      1                       0
    213 x_10_13                     1                       0
    237 x_11_17                     1                      -1
    253 x_12_13                     1                       0
    263 x_13_3                      1                       0
    284 x_14_4                      1                       1
    300 x_15_0                      1                       0
    320 x_16_0                      1                       0
    353 x_17_13                     1                      -1
    364 x_18_4                      1                       0
    385 x_19_5                      1                       0
    400 y_0                         1                       1
    403 y_3                         1                      -1
    404 y_4                         1                       0
    405 y_5                         1                       1
    413 y_13                        1                       0
    417 y_17                        1                       0
